
c--------------------------------------------------------------
c	Ferhat Erata
c	CPSC 454/554
c	Tue Nov 26 2019	22:50:32
c--------------------------------------------------------------
c 42 133
c -1 -7 
c -1 -13 
c -1 -19 
c -1 -25 
c -1 -31 
c -1 -37 
c -7 -13 
c -7 -19 
c -7 -25 
c -7 -31 
c -7 -37 
c -13 -19 
c -13 -25 
c -13 -31 
c -13 -37 
c -19 -25 
c -19 -31 
c -19 -37 
c -25 -31 
c -25 -37 
c -31 -37 
c -2 -8 
c -2 -14 
c -2 -20 
c -2 -26 
c -2 -32 
c -2 -38 
c -8 -14 
c -8 -20 
c -8 -26 
c -8 -32 
c -8 -38 
c -14 -20 
c -14 -26 
c -14 -32 
c -14 -38 
c -20 -26 
c -20 -32 
c -20 -38 
c -26 -32 
c -26 -38 
c -32 -38 
c -3 -9 
c -3 -15 
c -3 -21 
c -3 -27 
c -3 -33 
c -3 -39 
c -9 -15 
c -9 -21 
c -9 -27 
c -9 -33 
c -9 -39 
c -15 -21 
c -15 -27 
c -15 -33 
c -15 -39 
c -21 -27 
c -21 -33 
c -21 -39 
c -27 -33 
c -27 -39 
c -33 -39 
c -4 -10 
c -4 -16 
c -4 -22 
c -4 -28 
c -4 -34 
c -4 -40 
c -10 -16 
c -10 -22 
c -10 -28 
c -10 -34 
c -10 -40 
c -16 -22 
c -16 -28 
c -16 -34 
c -16 -40 
c -22 -28 
c -22 -34 
c -22 -40 
c -28 -34 
c -28 -40 
c -34 -40 
c -5 -11 
c -5 -17 
c -5 -23 
c -5 -29 
c -5 -35 
c -5 -41 
c -11 -17 
c -11 -23 
c -11 -29 
c -11 -35 
c -11 -41 
c -17 -23 
c -17 -29 
c -17 -35 
c -17 -41 
c -23 -29 
c -23 -35 
c -23 -41 
c -29 -35 
c -29 -41 
c -35 -41 
c -6 -12 
c -6 -18 
c -6 -24 
c -6 -30 
c -6 -36 
c -6 -42 
c -12 -18 
c -12 -24 
c -12 -30 
c -12 -36 
c -12 -42 
c -18 -24 
c -18 -30 
c -18 -36 
c -18 -42 
c -24 -30 
c -24 -36 
c -24 -42 
c -30 -36 
c -30 -42 
c -36 -42 
c 6 5 4 3 2 1 
c 12 11 10 9 8 7 
c 18 17 16 15 14 13 
c 24 23 22 21 20 19 
c 30 29 28 27 26 25 
c 36 35 34 33 32 31 
c 42 41 40 39 38 37 
s UNSATISFIABLE
c--------------------------------------------------------------
c statistics of ../../bench3/hole6.cnf:
c [ mem_used: 1121, conflicts: 0, max_lemmas: 2000 ]
c--------------------------------------------------------------
c	Normal termination.
